unknown
(model
; cardinality of BoundSet is 4
(declare-sort BoundSet 0)
; rep: @uc_BoundSet_0
; rep: @uc_BoundSet_1
; rep: @uc_BoundSet_2
; rep: @uc_BoundSet_3
; cardinality of UnboundSet is 1
(declare-sort UnboundSet 0)
(declare-fun groundTerm_4 () UnboundSet)
(define-fun something () BoundSet @uc_BoundSet_0)
(define-fun IsInBeigeBlazer ((BOUND_VARIABLE_444 BoundSet)) Bool true)
(define-fun Discusses ((BOUND_VARIABLE_451 BoundSet) (BOUND_VARIABLE_452 BoundSet)) Bool true)
(define-fun Drops ((BOUND_VARIABLE_451 BoundSet) (BOUND_VARIABLE_452 BoundSet)) Bool true)
(define-fun ReachesFor ((BOUND_VARIABLE_451 BoundSet) (BOUND_VARIABLE_452 BoundSet)) Bool true)
(define-fun IsTalking ((BOUND_VARIABLE_444 BoundSet)) Bool false)
)
sat
(model
; cardinality of BoundSet is 1
(declare-sort BoundSet 0)
; rep: @uc_BoundSet_0
; cardinality of UnboundSet is 1
(declare-sort UnboundSet 0)
(declare-fun groundTerm_6 () UnboundSet)
(define-fun something () BoundSet @uc_BoundSet_0)
(define-fun IsInBeigeBlazer ((BOUND_VARIABLE_489 BoundSet)) Bool true)
(define-fun Discusses ((BOUND_VARIABLE_496 BoundSet) (BOUND_VARIABLE_497 BoundSet)) Bool true)
(define-fun Drops ((BOUND_VARIABLE_496 BoundSet) (BOUND_VARIABLE_497 BoundSet)) Bool true)
(define-fun ReachesFor ((BOUND_VARIABLE_496 BoundSet) (BOUND_VARIABLE_497 BoundSet)) Bool true)
(define-fun IsTalking ((BOUND_VARIABLE_489 BoundSet)) Bool false)
)
